50
100
32
10
27
24
21
18
31
28
3
40
49
5
32
7
44
24
4
33
28
30
4
17
14
36
46
26
24
31
37
49
34
15
17
46
9
40
7
6
35
21
23
7
11
36
37
17
37
35
46
15
29
42
7
46
5
38
8
5
35
5
30
38
39
37
15
1
46
7
31
1
8
14
5
11
32
19
44
6
44
44
24
17
17
7
5
35
38
32
27
23
49
35
44
37
5
45
33
5
28
50
